p cnf 278 2084
57 106 163 196 0
50 89 128 130 0
47 99 118 122 0
91 174 260 0
98 104 111 0
71 88 95 132 202 0
43 62 112 120 125 137 0
92 142 145 150 167 0
135 154 214 216 0
160 166 171 218 220 0
177 180 0
170 187 0
32 140 149 152 0
117 182 184 231 234 0
82 101 115 156 190 0
27 76 77 79 80 81 0
66 68 73 75 85 131 0
83 84 94 123 0
60 64 0
59 105 107 0
54 55 58 0
49 51 53 126 133 0
45 46 48 146 0
108 175 0
96 155 0
69 74 0
42 61 138 0
40 41 0
36 37 0
158 161 0
33 35 0
30 116 179 0
28 110 114 186 0
21 23 24 26 0
20 65 0
17 18 19 0
159 164 191 0
129 134 192 193 0
56 162 194 197 198 0
176 199 0
100 121 200 0
44 63 247 258 0
93 139 144 201 250 0
38 70 87 203 0
113 124 205 0
165 168 206 0
207 209 213 275 0
127 136 215 217 0
34 172 219 221 0
153 210 223 224 226 0
178 181 183 185 0
31 78 148 151 227 229 0
22 25 230 232 235 0
67 189 236 0
-64 -94 0
-94 -238 0
-64 -238 0
-65 -239 0
-239 -241 0
-65 -241 0
-134 -194 0
-134 -147 0
-134 -176 0
-147 -194 0
-176 -194 0
-147 -176 0
-29 -227 0
-25 -29 0
-29 -236 0
-25 -227 0
-227 -236 0
-25 -236 0
-29 -134 0
-94 -239 0
-94 -194 0
-94 -227 0
-194 -239 0
-227 -239 0
-194 -227 0
-64 -65 0
-64 -147 0
-25 -64 0
-65 -147 0
-25 -65 0
-25 -147 0
-238 -241 0
-176 -238 0
-236 -238 0
-176 -241 0
-236 -241 0
-176 -236 0
-50 -106 0
-106 -118 0
-106 -242 0
-50 -118 0
-50 -242 0
-118 -242 0
-115 -140 0
-81 -140 0
-75 -140 0
-81 -115 0
-75 -115 0
-75 -81 0
-58 -243 0
-53 -243 0
-48 -243 0
-53 -58 0
-48 -58 0
-48 -53 0
-244 -245 0
-61 -244 0
-37 -244 0
-61 -245 0
-37 -245 0
-37 -61 0
-106 -140 0
-106 -243 0
-106 -244 0
-140 -243 0
-140 -244 0
-243 -244 0
-50 -115 0
-50 -58 0
-50 -245 0
-58 -115 0
-115 -245 0
-58 -245 0
-81 -118 0
-53 -118 0
-61 -118 0
-53 -81 0
-61 -81 0
-53 -61 0
-75 -242 0
-48 -242 0
-37 -242 0
-48 -75 0
-37 -75 0
-37 -48 0
-196 -265 0
-196 -248 0
-196 -251 0
-248 -265 0
-251 -265 0
-248 -251 0
-71 -125 0
-71 -180 0
-71 -187 0
-125 -180 0
-125 -187 0
-180 -187 0
-59 -253 0
-51 -253 0
-51 -59 0
-74 -254 0
-42 -254 0
-42 -74 0
-205 -206 0
-71 -196 0
-196 -253 0
-196 -254 0
-71 -253 0
-71 -254 0
-253 -254 0
-125 -265 0
-59 -265 0
-74 -265 0
-59 -125 0
-74 -125 0
-59 -74 0
-42 -51 0
-180 -248 0
-205 -248 0
-180 -205 0
-187 -251 0
-206 -251 0
-187 -206 0
-163 -256 0
-128 -163 0
-99 -163 0
-163 -260 0
-109 -163 0
-98 -163 0
-163 -259 0
-128 -256 0
-99 -256 0
-256 -260 0
-109 -256 0
-98 -256 0
-256 -259 0
-99 -128 0
-128 -260 0
-109 -128 0
-98 -128 0
-128 -259 0
-99 -260 0
-99 -109 0
-98 -99 0
-99 -259 0
-109 -260 0
-98 -260 0
-259 -260 0
-98 -109 0
-109 -259 0
-98 -259 0
-88 -112 0
-88 -92 0
-88 -208 0
-88 -135 0
-88 -160 0
-88 -211 0
-88 -177 0
-92 -112 0
-112 -208 0
-112 -135 0
-112 -160 0
-112 -211 0
-112 -177 0
-92 -208 0
-92 -135 0
-92 -160 0
-92 -211 0
-92 -177 0
-135 -208 0
-160 -208 0
-208 -211 0
-177 -208 0
-135 -160 0
-135 -211 0
-135 -177 0
-160 -211 0
-160 -177 0
-177 -211 0
-149 -231 0
-149 -156 0
-80 -149 0
-149 -233 0
-131 -149 0
-123 -149 0
-60 -149 0
-156 -231 0
-80 -231 0
-231 -233 0
-131 -231 0
-123 -231 0
-60 -231 0
-80 -156 0
-156 -233 0
-131 -156 0
-123 -156 0
-60 -156 0
-80 -233 0
-80 -131 0
-80 -123 0
-60 -80 0
-131 -233 0
-123 -233 0
-60 -233 0
-123 -131 0
-60 -131 0
-60 -123 0
-105 -262 0
-55 -262 0
-126 -262 0
-90 -262 0
-46 -262 0
-55 -105 0
-105 -126 0
-90 -105 0
-46 -105 0
-55 -126 0
-55 -90 0
-46 -55 0
-90 -126 0
-46 -126 0
-46 -90 0
-35 -222 0
-30 -35 0
-35 -110 0
-35 -102 0
-26 -35 0
-30 -222 0
-110 -222 0
-102 -222 0
-26 -222 0
-30 -110 0
-30 -102 0
-26 -30 0
-102 -110 0
-26 -110 0
-26 -102 0
-19 -263 0
-263 -264 0
-159 -263 0
-246 -263 0
-192 -263 0
-197 -263 0
-263 -266 0
-19 -264 0
-19 -159 0
-19 -246 0
-19 -192 0
-19 -197 0
-19 -266 0
-159 -264 0
-246 -264 0
-192 -264 0
-197 -264 0
-264 -266 0
-159 -246 0
-159 -192 0
-159 -197 0
-159 -266 0
-192 -246 0
-197 -246 0
-246 -266 0
-192 -197 0
-192 -266 0
-197 -266 0
-200 -249 0
-200 -252 0
-72 -200 0
-200 -247 0
-200 -250 0
-70 -200 0
-124 -200 0
-249 -252 0
-72 -249 0
-247 -249 0
-249 -250 0
-70 -249 0
-124 -249 0
-72 -252 0
-247 -252 0
-250 -252 0
-70 -252 0
-124 -252 0
-72 -247 0
-72 -250 0
-70 -72 0
-72 -124 0
-247 -250 0
-70 -247 0
-124 -247 0
-70 -250 0
-124 -250 0
-70 -124 0
-127 -207 0
-34 -207 0
-207 -223 0
-181 -207 0
-188 -207 0
-207 -229 0
-22 -207 0
-34 -127 0
-127 -223 0
-127 -181 0
-127 -188 0
-127 -229 0
-22 -127 0
-34 -223 0
-34 -181 0
-34 -188 0
-34 -229 0
-22 -34 0
-181 -223 0
-188 -223 0
-223 -229 0
-22 -223 0
-181 -188 0
-181 -229 0
-22 -181 0
-188 -229 0
-22 -188 0
-22 -229 0
-88 -163 0
-149 -163 0
-163 -262 0
-35 -163 0
-163 -263 0
-163 -200 0
-163 -207 0
-88 -149 0
-88 -262 0
-35 -88 0
-88 -263 0
-88 -200 0
-88 -207 0
-149 -262 0
-35 -149 0
-149 -263 0
-149 -200 0
-149 -207 0
-35 -262 0
-262 -263 0
-200 -262 0
-207 -262 0
-35 -263 0
-35 -200 0
-35 -207 0
-200 -263 0
-207 -263 0
-200 -207 0
-112 -256 0
-231 -256 0
-105 -256 0
-222 -256 0
-19 -256 0
-249 -256 0
-127 -256 0
-112 -231 0
-105 -112 0
-112 -222 0
-19 -112 0
-112 -249 0
-112 -127 0
-105 -231 0
-222 -231 0
-19 -231 0
-231 -249 0
-127 -231 0
-105 -222 0
-19 -105 0
-105 -249 0
-105 -127 0
-19 -222 0
-222 -249 0
-127 -222 0
-19 -249 0
-19 -127 0
-127 -249 0
-92 -128 0
-128 -156 0
-55 -128 0
-30 -128 0
-128 -264 0
-128 -252 0
-34 -128 0
-92 -156 0
-55 -92 0
-30 -92 0
-92 -264 0
-92 -252 0
-34 -92 0
-55 -156 0
-30 -156 0
-156 -264 0
-156 -252 0
-34 -156 0
-30 -55 0
-55 -264 0
-55 -252 0
-34 -55 0
-30 -264 0
-30 -252 0
-30 -34 0
-252 -264 0
-34 -264 0
-34 -252 0
-99 -208 0
-80 -99 0
-99 -126 0
-99 -110 0
-99 -159 0
-72 -99 0
-99 -223 0
-80 -208 0
-126 -208 0
-110 -208 0
-159 -208 0
-72 -208 0
-208 -223 0
-80 -126 0
-80 -110 0
-80 -159 0
-72 -80 0
-80 -223 0
-110 -126 0
-126 -159 0
-72 -126 0
-126 -223 0
-110 -159 0
-72 -110 0
-110 -223 0
-72 -159 0
-159 -223 0
-72 -223 0
-135 -260 0
-233 -260 0
-90 -260 0
-102 -260 0
-246 -260 0
-247 -260 0
-181 -260 0
-135 -233 0
-90 -135 0
-102 -135 0
-135 -246 0
-135 -247 0
-135 -181 0
-90 -233 0
-102 -233 0
-233 -246 0
-233 -247 0
-181 -233 0
-90 -102 0
-90 -246 0
-90 -247 0
-90 -181 0
-102 -246 0
-102 -247 0
-102 -181 0
-246 -247 0
-181 -246 0
-181 -247 0
-109 -160 0
-109 -131 0
-46 -109 0
-26 -109 0
-109 -192 0
-109 -250 0
-109 -188 0
-131 -160 0
-46 -160 0
-26 -160 0
-160 -192 0
-160 -250 0
-160 -188 0
-46 -131 0
-26 -131 0
-131 -192 0
-131 -250 0
-131 -188 0
-26 -46 0
-46 -192 0
-46 -250 0
-46 -188 0
-26 -192 0
-26 -250 0
-26 -188 0
-192 -250 0
-188 -192 0
-188 -250 0
-98 -211 0
-98 -123 0
-98 -197 0
-70 -98 0
-98 -229 0
-123 -211 0
-197 -211 0
-70 -211 0
-211 -229 0
-123 -197 0
-70 -123 0
-123 -229 0
-70 -197 0
-197 -229 0
-70 -229 0
-177 -259 0
-60 -259 0
-259 -266 0
-124 -259 0
-22 -259 0
-60 -177 0
-177 -266 0
-124 -177 0
-22 -177 0
-60 -266 0
-60 -124 0
-22 -60 0
-124 -266 0
-22 -266 0
-22 -124 0
-120 -202 0
-202 -204 0
-202 -214 0
-202 -218 0
-120 -204 0
-120 -214 0
-120 -218 0
-204 -214 0
-204 -218 0
-214 -218 0
-117 -152 0
-79 -152 0
-152 -240 0
-66 -152 0
-79 -117 0
-117 -240 0
-66 -117 0
-79 -240 0
-66 -79 0
-66 -240 0
-133 -195 0
-133 -146 0
-133 -175 0
-133 -155 0
-146 -195 0
-175 -195 0
-155 -195 0
-146 -175 0
-146 -155 0
-155 -175 0
-28 -228 0
-24 -28 0
-28 -237 0
-20 -28 0
-24 -228 0
-228 -237 0
-20 -228 0
-24 -237 0
-20 -24 0
-20 -237 0
-18 -267 0
-164 -267 0
-257 -267 0
-129 -267 0
-162 -267 0
-255 -267 0
-18 -164 0
-18 -257 0
-18 -129 0
-18 -162 0
-18 -255 0
-164 -257 0
-129 -164 0
-162 -164 0
-164 -255 0
-129 -257 0
-162 -257 0
-255 -257 0
-129 -162 0
-129 -255 0
-162 -255 0
-100 -261 0
-97 -100 0
-100 -258 0
-93 -100 0
-87 -100 0
-100 -113 0
-97 -261 0
-258 -261 0
-93 -261 0
-87 -261 0
-113 -261 0
-97 -258 0
-93 -97 0
-87 -97 0
-97 -113 0
-93 -258 0
-87 -258 0
-113 -258 0
-87 -93 0
-93 -113 0
-87 -113 0
-136 -209 0
-209 -210 0
-178 -209 0
-157 -209 0
-148 -209 0
-209 -232 0
-136 -210 0
-136 -178 0
-136 -157 0
-136 -148 0
-136 -232 0
-178 -210 0
-157 -210 0
-148 -210 0
-210 -232 0
-157 -178 0
-148 -178 0
-178 -232 0
-148 -157 0
-157 -232 0
-148 -232 0
-152 -202 0
-202 -267 0
-100 -202 0
-202 -209 0
-152 -267 0
-100 -152 0
-152 -209 0
-100 -267 0
-209 -267 0
-100 -209 0
-117 -120 0
-18 -120 0
-120 -261 0
-120 -136 0
-18 -117 0
-117 -261 0
-117 -136 0
-18 -261 0
-18 -136 0
-136 -261 0
-79 -204 0
-133 -204 0
-28 -204 0
-164 -204 0
-97 -204 0
-204 -210 0
-79 -133 0
-28 -79 0
-79 -164 0
-79 -97 0
-79 -210 0
-28 -133 0
-133 -164 0
-97 -133 0
-133 -210 0
-28 -164 0
-28 -97 0
-28 -210 0
-97 -164 0
-164 -210 0
-97 -210 0
-214 -240 0
-195 -214 0
-214 -228 0
-214 -257 0
-214 -258 0
-178 -214 0
-195 -240 0
-228 -240 0
-240 -257 0
-240 -258 0
-178 -240 0
-195 -228 0
-195 -257 0
-195 -258 0
-178 -195 0
-228 -257 0
-228 -258 0
-178 -228 0
-257 -258 0
-178 -257 0
-178 -258 0
-66 -218 0
-146 -218 0
-24 -218 0
-129 -218 0
-93 -218 0
-157 -218 0
-66 -146 0
-24 -66 0
-66 -129 0
-66 -93 0
-66 -157 0
-24 -146 0
-129 -146 0
-93 -146 0
-146 -157 0
-24 -129 0
-24 -93 0
-24 -157 0
-93 -129 0
-129 -157 0
-93 -157 0
-175 -237 0
-162 -175 0
-87 -175 0
-148 -175 0
-162 -237 0
-87 -237 0
-148 -237 0
-87 -162 0
-148 -162 0
-87 -148 0
-20 -155 0
-155 -255 0
-113 -155 0
-155 -232 0
-20 -255 0
-20 -113 0
-20 -232 0
-113 -255 0
-232 -255 0
-113 -232 0
-62 -167 0
-39 -62 0
-62 -166 0
-39 -167 0
-166 -167 0
-39 -166 0
-182 -190 0
-77 -182 0
-85 -182 0
-77 -190 0
-85 -190 0
-77 -85 0
-158 -268 0
-17 -269 0
-17 -191 0
-17 -193 0
-17 -198 0
-17 -199 0
-191 -269 0
-193 -269 0
-198 -269 0
-199 -269 0
-191 -193 0
-191 -198 0
-191 -199 0
-193 -198 0
-193 -199 0
-198 -199 0
-270 -271 0
-86 -270 0
-201 -270 0
-203 -270 0
-165 -270 0
-86 -271 0
-201 -271 0
-203 -271 0
-165 -271 0
-86 -201 0
-86 -203 0
-86 -165 0
-201 -203 0
-165 -201 0
-165 -203 0
-215 -219 0
-153 -215 0
-215 -272 0
-151 -215 0
-67 -215 0
-153 -219 0
-219 -272 0
-151 -219 0
-67 -219 0
-153 -272 0
-151 -153 0
-67 -153 0
-151 -272 0
-67 -272 0
-67 -151 0
-62 -182 0
-17 -62 0
-62 -270 0
-62 -215 0
-17 -182 0
-182 -270 0
-182 -215 0
-17 -270 0
-17 -215 0
-215 -270 0
-167 -190 0
-167 -269 0
-167 -271 0
-167 -219 0
-190 -269 0
-190 -271 0
-190 -219 0
-269 -271 0
-219 -269 0
-219 -271 0
-39 -77 0
-39 -191 0
-39 -86 0
-39 -153 0
-77 -191 0
-77 -86 0
-77 -153 0
-86 -191 0
-153 -191 0
-86 -153 0
-85 -166 0
-166 -193 0
-166 -201 0
-166 -272 0
-85 -193 0
-85 -201 0
-85 -272 0
-193 -201 0
-193 -272 0
-201 -272 0
-158 -198 0
-158 -203 0
-151 -158 0
-198 -203 0
-151 -198 0
-151 -203 0
-199 -268 0
-165 -268 0
-67 -268 0
-165 -199 0
-67 -199 0
-67 -165 0
-52 -130 0
-52 -122 0
-52 -174 0
-52 -274 0
-52 -104 0
-52 -143 0
-122 -130 0
-130 -174 0
-130 -274 0
-104 -130 0
-130 -143 0
-122 -174 0
-122 -274 0
-104 -122 0
-122 -143 0
-174 -274 0
-104 -174 0
-143 -174 0
-104 -274 0
-143 -274 0
-104 -143 0
-43 -142 0
-43 -276 0
-43 -216 0
-43 -171 0
-43 -225 0
-43 -170 0
-142 -276 0
-142 -216 0
-142 -171 0
-142 -225 0
-142 -170 0
-216 -276 0
-171 -276 0
-225 -276 0
-170 -276 0
-171 -216 0
-216 -225 0
-170 -216 0
-171 -225 0
-170 -171 0
-170 -225 0
-82 -184 0
-76 -184 0
-184 -277 0
-73 -184 0
-84 -184 0
-184 -278 0
-76 -82 0
-82 -277 0
-73 -82 0
-82 -84 0
-82 -278 0
-76 -277 0
-73 -76 0
-76 -84 0
-76 -278 0
-73 -277 0
-84 -277 0
-277 -278 0
-73 -84 0
-73 -278 0
-84 -278 0
-54 -107 0
-49 -107 0
-107 -119 0
-45 -107 0
-49 -54 0
-54 -119 0
-45 -54 0
-49 -119 0
-45 -49 0
-45 -119 0
-116 -141 0
-114 -141 0
-16 -141 0
-23 -141 0
-114 -116 0
-16 -116 0
-23 -116 0
-16 -114 0
-23 -114 0
-16 -23 0
-15 -63 0
-15 -139 0
-15 -38 0
-15 -168 0
-63 -139 0
-38 -63 0
-63 -168 0
-38 -139 0
-139 -168 0
-38 -168 0
-183 -224 0
-14 -224 0
-78 -224 0
-189 -224 0
-14 -183 0
-78 -183 0
-183 -189 0
-14 -78 0
-14 -189 0
-78 -189 0
-43 -52 0
-52 -184 0
-52 -107 0
-52 -141 0
-43 -184 0
-43 -107 0
-43 -141 0
-107 -184 0
-141 -184 0
-107 -141 0
-130 -142 0
-82 -130 0
-54 -130 0
-116 -130 0
-82 -142 0
-54 -142 0
-116 -142 0
-54 -82 0
-82 -116 0
-54 -116 0
-122 -276 0
-76 -122 0
-49 -122 0
-114 -122 0
-15 -122 0
-122 -224 0
-76 -276 0
-49 -276 0
-114 -276 0
-15 -276 0
-224 -276 0
-49 -76 0
-76 -114 0
-15 -76 0
-76 -224 0
-49 -114 0
-15 -49 0
-49 -224 0
-15 -114 0
-114 -224 0
-15 -224 0
-174 -216 0
-174 -277 0
-119 -174 0
-16 -174 0
-63 -174 0
-174 -183 0
-216 -277 0
-119 -216 0
-16 -216 0
-63 -216 0
-183 -216 0
-119 -277 0
-16 -277 0
-63 -277 0
-183 -277 0
-16 -119 0
-63 -119 0
-119 -183 0
-16 -63 0
-16 -183 0
-63 -183 0
-171 -274 0
-73 -274 0
-45 -274 0
-23 -274 0
-139 -274 0
-14 -274 0
-73 -171 0
-45 -171 0
-23 -171 0
-139 -171 0
-14 -171 0
-45 -73 0
-23 -73 0
-73 -139 0
-14 -73 0
-23 -45 0
-45 -139 0
-14 -45 0
-23 -139 0
-14 -23 0
-14 -139 0
-104 -225 0
-84 -104 0
-38 -104 0
-78 -104 0
-84 -225 0
-38 -225 0
-78 -225 0
-38 -84 0
-78 -84 0
-38 -78 0
-143 -170 0
-143 -278 0
-143 -168 0
-143 -189 0
-170 -278 0
-168 -170 0
-170 -189 0
-168 -278 0
-189 -278 0
-168 -189 0
-13 -57 0
-57 -89 0
-47 -57 0
-57 -91 0
-11 -57 0
-57 -111 0
-13 -89 0
-13 -47 0
-13 -91 0
-11 -13 0
-13 -111 0
-47 -89 0
-89 -91 0
-11 -89 0
-89 -111 0
-47 -91 0
-11 -47 0
-47 -111 0
-11 -91 0
-91 -111 0
-11 -111 0
-132 -137 0
-132 -145 0
-132 -212 0
-132 -154 0
-132 -220 0
-10 -132 0
-137 -145 0
-137 -212 0
-137 -154 0
-137 -220 0
-10 -137 0
-145 -212 0
-145 -154 0
-145 -220 0
-10 -145 0
-154 -212 0
-212 -220 0
-10 -212 0
-154 -220 0
-10 -154 0
-10 -220 0
-32 -234 0
-32 -101 0
-27 -32 0
-9 -32 0
-32 -68 0
-32 -83 0
-101 -234 0
-27 -234 0
-9 -234 0
-68 -234 0
-83 -234 0
-27 -101 0
-9 -101 0
-68 -101 0
-83 -101 0
-9 -27 0
-27 -68 0
-27 -83 0
-9 -68 0
-9 -83 0
-68 -83 0
-8 -69 0
-7 -8 0
-8 -138 0
-8 -41 0
-8 -36 0
-7 -69 0
-69 -138 0
-41 -69 0
-36 -69 0
-7 -138 0
-7 -41 0
-7 -36 0
-41 -138 0
-36 -138 0
-36 -41 0
-6 -33 0
-33 -179 0
-33 -186 0
-5 -33 0
-21 -33 0
-6 -179 0
-6 -186 0
-5 -6 0
-6 -21 0
-179 -186 0
-5 -179 0
-21 -179 0
-5 -186 0
-21 -186 0
-5 -21 0
-121 -173 0
-121 -273 0
-103 -121 0
-44 -121 0
-121 -144 0
-173 -273 0
-103 -173 0
-44 -173 0
-144 -173 0
-103 -273 0
-44 -273 0
-144 -273 0
-44 -103 0
-103 -144 0
-44 -144 0
-217 -275 0
-172 -275 0
-226 -275 0
-185 -275 0
-169 -275 0
-172 -217 0
-217 -226 0
-185 -217 0
-169 -217 0
-172 -226 0
-172 -185 0
-169 -172 0
-185 -226 0
-169 -226 0
-169 -185 0
-57 -132 0
-32 -57 0
-8 -57 0
-33 -57 0
-57 -121 0
-57 -275 0
-32 -132 0
-8 -132 0
-33 -132 0
-121 -132 0
-132 -275 0
-8 -32 0
-32 -33 0
-32 -121 0
-32 -275 0
-8 -33 0
-8 -121 0
-8 -275 0
-33 -121 0
-33 -275 0
-121 -275 0
-13 -137 0
-13 -234 0
-13 -69 0
-6 -13 0
-13 -173 0
-13 -217 0
-137 -234 0
-69 -137 0
-6 -137 0
-137 -173 0
-137 -217 0
-69 -234 0
-6 -234 0
-173 -234 0
-217 -234 0
-6 -69 0
-69 -173 0
-69 -217 0
-6 -173 0
-6 -217 0
-173 -217 0
-89 -145 0
-89 -101 0
-7 -89 0
-89 -179 0
-89 -273 0
-89 -172 0
-101 -145 0
-7 -145 0
-145 -179 0
-145 -273 0
-145 -172 0
-7 -101 0
-101 -179 0
-101 -273 0
-101 -172 0
-7 -179 0
-7 -273 0
-7 -172 0
-179 -273 0
-172 -179 0
-172 -273 0
-47 -212 0
-27 -47 0
-47 -138 0
-47 -186 0
-47 -103 0
-47 -226 0
-27 -212 0
-138 -212 0
-186 -212 0
-103 -212 0
-212 -226 0
-27 -138 0
-27 -186 0
-27 -103 0
-27 -226 0
-138 -186 0
-103 -138 0
-138 -226 0
-103 -186 0
-186 -226 0
-103 -226 0
-91 -154 0
-9 -91 0
-41 -91 0
-5 -91 0
-44 -91 0
-91 -185 0
-9 -154 0
-41 -154 0
-5 -154 0
-44 -154 0
-154 -185 0
-9 -41 0
-5 -9 0
-9 -44 0
-9 -185 0
-5 -41 0
-41 -44 0
-41 -185 0
-5 -44 0
-5 -185 0
-44 -185 0
-11 -220 0
-11 -68 0
-11 -36 0
-11 -21 0
-11 -144 0
-11 -169 0
-68 -220 0
-36 -220 0
-21 -220 0
-144 -220 0
-169 -220 0
-36 -68 0
-21 -68 0
-68 -144 0
-68 -169 0
-21 -36 0
-36 -144 0
-36 -169 0
-21 -144 0
-21 -169 0
-144 -169 0
-10 -111 0
-83 -111 0
-10 -83 0
-95 -150 0
-4 -108 0
-4 -96 0
-96 -108 0
-40 -161 0
-3 -40 0
-3 -161 0
-1 -2 0
-2 -56 0
-2 -12 0
-1 -56 0
-1 -12 0
-12 -56 0
-213 -221 0
-31 -213 0
-213 -235 0
-31 -221 0
-221 -235 0
-31 -235 0
-2 -95 0
-95 -213 0
-2 -213 0
-1 -150 0
-150 -221 0
-1 -221 0
-4 -40 0
-108 -161 0
-56 -108 0
-31 -108 0
-56 -161 0
-31 -161 0
-31 -56 0
-3 -96 0
-12 -96 0
-96 -235 0
-3 -12 0
-3 -235 0
-12 -235 0
-50 -106 0
-106 -140 0
-106 -115 0
-50 -140 0
-50 -115 0
-115 -140 0
-196 -265 0
-71 -196 0
-125 -196 0
-71 -265 0
-125 -265 0
-71 -125 0
-163 -256 0
-128 -163 0
-88 -163 0
-112 -163 0
-92 -163 0
-149 -163 0
-163 -231 0
-156 -163 0
-128 -256 0
-88 -256 0
-112 -256 0
-92 -256 0
-149 -256 0
-231 -256 0
-156 -256 0
-88 -128 0
-112 -128 0
-92 -128 0
-128 -149 0
-128 -231 0
-128 -156 0
-88 -112 0
-88 -92 0
-88 -149 0
-88 -231 0
-88 -156 0
-92 -112 0
-112 -149 0
-112 -231 0
-112 -156 0
-92 -149 0
-92 -231 0
-92 -156 0
-149 -231 0
-149 -156 0
-156 -231 0
-120 -202 0
-152 -202 0
-117 -202 0
-120 -152 0
-117 -120 0
-117 -152 0
-62 -167 0
-62 -182 0
-62 -190 0
-167 -182 0
-167 -190 0
-182 -190 0
-52 -130 0
-43 -52 0
-52 -142 0
-52 -184 0
-52 -82 0
-43 -130 0
-130 -142 0
-130 -184 0
-82 -130 0
-43 -142 0
-43 -184 0
-43 -82 0
-142 -184 0
-82 -142 0
-82 -184 0
-13 -57 0
-57 -89 0
-57 -132 0
-57 -137 0
-57 -145 0
-32 -57 0
-57 -234 0
-57 -101 0
-13 -89 0
-13 -132 0
-13 -137 0
-13 -145 0
-13 -32 0
-13 -234 0
-13 -101 0
-89 -132 0
-89 -137 0
-89 -145 0
-32 -89 0
-89 -234 0
-89 -101 0
-132 -137 0
-132 -145 0
-32 -132 0
-132 -234 0
-101 -132 0
-137 -145 0
-32 -137 0
-137 -234 0
-101 -137 0
-32 -145 0
-145 -234 0
-101 -145 0
-32 -234 0
-32 -101 0
-101 -234 0
-95 -150 0
-118 -242 0
-81 -118 0
-75 -118 0
-81 -242 0
-75 -242 0
-75 -81 0
-99 -260 0
-99 -109 0
-99 -208 0
-99 -135 0
-99 -160 0
-80 -99 0
-99 -233 0
-99 -131 0
-109 -260 0
-208 -260 0
-135 -260 0
-160 -260 0
-80 -260 0
-233 -260 0
-131 -260 0
-109 -208 0
-109 -135 0
-109 -160 0
-80 -109 0
-109 -233 0
-109 -131 0
-135 -208 0
-160 -208 0
-80 -208 0
-208 -233 0
-131 -208 0
-135 -160 0
-80 -135 0
-135 -233 0
-131 -135 0
-80 -160 0
-160 -233 0
-131 -160 0
-80 -233 0
-80 -131 0
-131 -233 0
-204 -214 0
-204 -218 0
-79 -204 0
-204 -240 0
-66 -204 0
-214 -218 0
-79 -214 0
-214 -240 0
-66 -214 0
-79 -218 0
-218 -240 0
-66 -218 0
-79 -240 0
-66 -79 0
-66 -240 0
-39 -166 0
-39 -77 0
-39 -85 0
-77 -166 0
-85 -166 0
-77 -85 0
-122 -174 0
-122 -274 0
-122 -276 0
-122 -216 0
-122 -171 0
-76 -122 0
-122 -277 0
-73 -122 0
-174 -274 0
-174 -276 0
-174 -216 0
-171 -174 0
-76 -174 0
-174 -277 0
-73 -174 0
-274 -276 0
-216 -274 0
-171 -274 0
-76 -274 0
-274 -277 0
-73 -274 0
-216 -276 0
-171 -276 0
-76 -276 0
-276 -277 0
-73 -276 0
-171 -216 0
-76 -216 0
-216 -277 0
-73 -216 0
-76 -171 0
-171 -277 0
-73 -171 0
-76 -277 0
-73 -76 0
-73 -277 0
-47 -91 0
-11 -47 0
-47 -212 0
-47 -154 0
-47 -220 0
-27 -47 0
-9 -47 0
-47 -68 0
-11 -91 0
-91 -212 0
-91 -154 0
-91 -220 0
-27 -91 0
-9 -91 0
-68 -91 0
-11 -212 0
-11 -154 0
-11 -220 0
-11 -27 0
-9 -11 0
-11 -68 0
-154 -212 0
-212 -220 0
-27 -212 0
-9 -212 0
-68 -212 0
-154 -220 0
-27 -154 0
-9 -154 0
-68 -154 0
-27 -220 0
-9 -220 0
-68 -220 0
-9 -27 0
-27 -68 0
-9 -68 0
-64 -94 0
-94 -238 0
-64 -238 0
-248 -251 0
-180 -248 0
-187 -248 0
-180 -251 0
-187 -251 0
-180 -187 0
-98 -259 0
-98 -211 0
-98 -177 0
-98 -123 0
-60 -98 0
-211 -259 0
-177 -259 0
-123 -259 0
-60 -259 0
-177 -211 0
-123 -211 0
-60 -211 0
-123 -177 0
-60 -177 0
-60 -123 0
-104 -143 0
-104 -225 0
-104 -170 0
-84 -104 0
-104 -278 0
-143 -225 0
-143 -170 0
-84 -143 0
-143 -278 0
-170 -225 0
-84 -225 0
-225 -278 0
-84 -170 0
-170 -278 0
-84 -278 0
-10 -111 0
-83 -111 0
-10 -83 0
-58 -243 0
-243 -244 0
-243 -245 0
-58 -244 0
-58 -245 0
-244 -245 0
-59 -253 0
-253 -254 0
-74 -253 0
-59 -254 0
-59 -74 0
-74 -254 0
-105 -262 0
-55 -262 0
-35 -262 0
-222 -262 0
-30 -262 0
-55 -105 0
-35 -105 0
-105 -222 0
-30 -105 0
-35 -55 0
-55 -222 0
-30 -55 0
-35 -222 0
-30 -35 0
-30 -222 0
-54 -107 0
-107 -141 0
-107 -116 0
-54 -141 0
-54 -116 0
-116 -141 0
-8 -69 0
-7 -8 0
-8 -33 0
-6 -8 0
-8 -179 0
-7 -69 0
-33 -69 0
-6 -69 0
-69 -179 0
-7 -33 0
-6 -7 0
-7 -179 0
-6 -33 0
-33 -179 0
-6 -179 0
-48 -53 0
-53 -61 0
-37 -53 0
-48 -61 0
-37 -48 0
-37 -61 0
-42 -51 0
-90 -126 0
-46 -126 0
-110 -126 0
-102 -126 0
-26 -126 0
-46 -90 0
-90 -110 0
-90 -102 0
-26 -90 0
-46 -110 0
-46 -102 0
-26 -46 0
-102 -110 0
-26 -110 0
-26 -102 0
-133 -195 0
-133 -146 0
-28 -133 0
-133 -228 0
-24 -133 0
-146 -195 0
-28 -195 0
-195 -228 0
-24 -195 0
-28 -146 0
-146 -228 0
-24 -146 0
-28 -228 0
-24 -28 0
-24 -228 0
-49 -119 0
-45 -49 0
-49 -114 0
-16 -49 0
-23 -49 0
-45 -119 0
-114 -119 0
-16 -119 0
-23 -119 0
-45 -114 0
-16 -45 0
-23 -45 0
-16 -114 0
-23 -114 0
-16 -23 0
-41 -138 0
-36 -138 0
-138 -186 0
-5 -138 0
-21 -138 0
-36 -41 0
-41 -186 0
-5 -41 0
-21 -41 0
-36 -186 0
-5 -36 0
-21 -36 0
-5 -186 0
-21 -186 0
-5 -21 0
-4 -40 0
-65 -239 0
-239 -241 0
-65 -241 0
-155 -175 0
-175 -237 0
-20 -175 0
-155 -237 0
-20 -155 0
-20 -237 0
-158 -268 0
-96 -108 0
-108 -161 0
-3 -108 0
-96 -161 0
-3 -96 0
-3 -161 0
-19 -263 0
-263 -264 0
-200 -263 0
-249 -263 0
-252 -263 0
-207 -263 0
-127 -263 0
-34 -263 0
-19 -264 0
-19 -200 0
-19 -249 0
-19 -252 0
-19 -207 0
-19 -127 0
-19 -34 0
-200 -264 0
-249 -264 0
-252 -264 0
-207 -264 0
-127 -264 0
-34 -264 0
-200 -249 0
-200 -252 0
-200 -207 0
-127 -200 0
-34 -200 0
-249 -252 0
-207 -249 0
-127 -249 0
-34 -249 0
-207 -252 0
-127 -252 0
-34 -252 0
-127 -207 0
-34 -207 0
-34 -127 0
-18 -267 0
-100 -267 0
-261 -267 0
-209 -267 0
-136 -267 0
-18 -100 0
-18 -261 0
-18 -209 0
-18 -136 0
-100 -261 0
-100 -209 0
-100 -136 0
-209 -261 0
-136 -261 0
-136 -209 0
-17 -269 0
-17 -270 0
-17 -271 0
-17 -215 0
-17 -219 0
-269 -270 0
-269 -271 0
-215 -269 0
-219 -269 0
-270 -271 0
-215 -270 0
-219 -270 0
-215 -271 0
-219 -271 0
-215 -219 0
-121 -173 0
-121 -273 0
-121 -275 0
-121 -217 0
-121 -172 0
-173 -273 0
-173 -275 0
-173 -217 0
-172 -173 0
-273 -275 0
-217 -273 0
-172 -273 0
-217 -275 0
-172 -275 0
-172 -217 0
-1 -2 0
-2 -213 0
-2 -221 0
-1 -213 0
-1 -221 0
-213 -221 0
-29 -134 0
-159 -246 0
-159 -192 0
-72 -159 0
-159 -247 0
-159 -250 0
-159 -223 0
-159 -181 0
-159 -188 0
-192 -246 0
-72 -246 0
-246 -247 0
-246 -250 0
-223 -246 0
-181 -246 0
-188 -246 0
-72 -192 0
-192 -247 0
-192 -250 0
-192 -223 0
-181 -192 0
-188 -192 0
-72 -247 0
-72 -250 0
-72 -223 0
-72 -181 0
-72 -188 0
-247 -250 0
-223 -247 0
-181 -247 0
-188 -247 0
-223 -250 0
-181 -250 0
-188 -250 0
-181 -223 0
-188 -223 0
-181 -188 0
-164 -257 0
-129 -164 0
-97 -164 0
-164 -258 0
-93 -164 0
-164 -210 0
-164 -178 0
-157 -164 0
-129 -257 0
-97 -257 0
-257 -258 0
-93 -257 0
-210 -257 0
-178 -257 0
-157 -257 0
-97 -129 0
-129 -258 0
-93 -129 0
-129 -210 0
-129 -178 0
-129 -157 0
-97 -258 0
-93 -97 0
-97 -210 0
-97 -178 0
-97 -157 0
-93 -258 0
-210 -258 0
-178 -258 0
-157 -258 0
-93 -210 0
-93 -178 0
-93 -157 0
-178 -210 0
-157 -210 0
-157 -178 0
-191 -193 0
-86 -191 0
-191 -201 0
-153 -191 0
-191 -272 0
-86 -193 0
-193 -201 0
-153 -193 0
-193 -272 0
-86 -201 0
-86 -153 0
-86 -272 0
-153 -201 0
-201 -272 0
-153 -272 0
-15 -63 0
-15 -139 0
-15 -224 0
-15 -183 0
-14 -15 0
-63 -139 0
-63 -224 0
-63 -183 0
-14 -63 0
-139 -224 0
-139 -183 0
-14 -139 0
-183 -224 0
-14 -224 0
-14 -183 0
-44 -103 0
-103 -144 0
-103 -226 0
-103 -185 0
-103 -169 0
-44 -144 0
-44 -226 0
-44 -185 0
-44 -169 0
-144 -226 0
-144 -185 0
-144 -169 0
-185 -226 0
-169 -226 0
-169 -185 0
-147 -194 0
-176 -194 0
-194 -227 0
-25 -194 0
-194 -236 0
-147 -176 0
-147 -227 0
-25 -147 0
-147 -236 0
-176 -227 0
-25 -176 0
-176 -236 0
-25 -227 0
-227 -236 0
-25 -236 0
-205 -206 0
-197 -266 0
-70 -197 0
-124 -197 0
-197 -229 0
-22 -197 0
-70 -266 0
-124 -266 0
-229 -266 0
-22 -266 0
-70 -124 0
-70 -229 0
-22 -70 0
-124 -229 0
-22 -124 0
-22 -229 0
-162 -255 0
-87 -162 0
-113 -162 0
-148 -162 0
-162 -232 0
-87 -255 0
-113 -255 0
-148 -255 0
-232 -255 0
-87 -113 0
-87 -148 0
-87 -232 0
-113 -148 0
-113 -232 0
-148 -232 0
-198 -199 0
-198 -203 0
-165 -198 0
-151 -198 0
-67 -198 0
-199 -203 0
-165 -199 0
-151 -199 0
-67 -199 0
-165 -203 0
-151 -203 0
-67 -203 0
-151 -165 0
-67 -165 0
-67 -151 0
-38 -168 0
-38 -78 0
-38 -189 0
-78 -168 0
-168 -189 0
-78 -189 0
-12 -56 0
-31 -56 0
-56 -235 0
-12 -31 0
-12 -235 0
-31 -235 0
